certificates/rado_a9_c3_N76.cnf
c Rad2 upper bound instance: x1 + 9*x2 - x3 = 3, interval [1,76]
p cnf 76 616
1 7 0
-1 -7 0
1 2 16 0
-1 -2 -16 0
1 3 25 0
-1 -3 -25 0
1 4 34 0
-1 -4 -34 0
1 5 43 0
-1 -5 -43 0
1 6 52 0
-1 -6 -52 0
1 7 61 0
-1 -7 -61 0
1 8 70 0
-1 -8 -70 0
1 2 8 0
-1 -2 -8 0
2 17 0
-2 -17 0
2 3 26 0
-2 -3 -26 0
2 4 35 0
-2 -4 -35 0
2 5 44 0
-2 -5 -44 0
2 6 53 0
-2 -6 -53 0
2 7 62 0
-2 -7 -62 0
2 8 71 0
-2 -8 -71 0
1 3 9 0
-1 -3 -9 0
2 3 18 0
-2 -3 -18 0
3 27 0
-3 -27 0
3 4 36 0
-3 -4 -36 0
3 5 45 0
-3 -5 -45 0
3 6 54 0
-3 -6 -54 0
3 7 63 0
-3 -7 -63 0
3 8 72 0
-3 -8 -72 0
1 4 10 0
-1 -4 -10 0
2 4 19 0
-2 -4 -19 0
3 4 28 0
-3 -4 -28 0
4 37 0
-4 -37 0
4 5 46 0
-4 -5 -46 0
4 6 55 0
-4 -6 -55 0
4 7 64 0
-4 -7 -64 0
4 8 73 0
-4 -8 -73 0
1 5 11 0
-1 -5 -11 0
2 5 20 0
-2 -5 -20 0
3 5 29 0
-3 -5 -29 0
4 5 38 0
-4 -5 -38 0
5 47 0
-5 -47 0
5 6 56 0
-5 -6 -56 0
5 7 65 0
-5 -7 -65 0
5 8 74 0
-5 -8 -74 0
1 6 12 0
-1 -6 -12 0
2 6 21 0
-2 -6 -21 0
3 6 30 0
-3 -6 -30 0
4 6 39 0
-4 -6 -39 0
5 6 48 0
-5 -6 -48 0
6 57 0
-6 -57 0
6 7 66 0
-6 -7 -66 0
6 8 75 0
-6 -8 -75 0
1 7 13 0
-1 -7 -13 0
2 7 22 0
-2 -7 -22 0
3 7 31 0
-3 -7 -31 0
4 7 40 0
-4 -7 -40 0
5 7 49 0
-5 -7 -49 0
6 7 58 0
-6 -7 -58 0
7 67 0
-7 -67 0
7 8 76 0
-7 -8 -76 0
1 8 14 0
-1 -8 -14 0
2 8 23 0
-2 -8 -23 0
3 8 32 0
-3 -8 -32 0
4 8 41 0
-4 -8 -41 0
5 8 50 0
-5 -8 -50 0
6 8 59 0
-6 -8 -59 0
7 8 68 0
-7 -8 -68 0
1 9 15 0
-1 -9 -15 0
2 9 24 0
-2 -9 -24 0
3 9 33 0
-3 -9 -33 0
4 9 42 0
-4 -9 -42 0
5 9 51 0
-5 -9 -51 0
6 9 60 0
-6 -9 -60 0
7 9 69 0
-7 -9 -69 0
1 10 16 0
-1 -10 -16 0
2 10 25 0
-2 -10 -25 0
3 10 34 0
-3 -10 -34 0
4 10 43 0
-4 -10 -43 0
5 10 52 0
-5 -10 -52 0
6 10 61 0
-6 -10 -61 0
7 10 70 0
-7 -10 -70 0
1 11 17 0
-1 -11 -17 0
2 11 26 0
-2 -11 -26 0
3 11 35 0
-3 -11 -35 0
4 11 44 0
-4 -11 -44 0
5 11 53 0
-5 -11 -53 0
6 11 62 0
-6 -11 -62 0
7 11 71 0
-7 -11 -71 0
1 12 18 0
-1 -12 -18 0
2 12 27 0
-2 -12 -27 0
3 12 36 0
-3 -12 -36 0
4 12 45 0
-4 -12 -45 0
5 12 54 0
-5 -12 -54 0
6 12 63 0
-6 -12 -63 0
7 12 72 0
-7 -12 -72 0
1 13 19 0
-1 -13 -19 0
2 13 28 0
-2 -13 -28 0
3 13 37 0
-3 -13 -37 0
4 13 46 0
-4 -13 -46 0
5 13 55 0
-5 -13 -55 0
6 13 64 0
-6 -13 -64 0
7 13 73 0
-7 -13 -73 0
1 14 20 0
-1 -14 -20 0
2 14 29 0
-2 -14 -29 0
3 14 38 0
-3 -14 -38 0
4 14 47 0
-4 -14 -47 0
5 14 56 0
-5 -14 -56 0
6 14 65 0
-6 -14 -65 0
7 14 74 0
-7 -14 -74 0
1 15 21 0
-1 -15 -21 0
2 15 30 0
-2 -15 -30 0
3 15 39 0
-3 -15 -39 0
4 15 48 0
-4 -15 -48 0
5 15 57 0
-5 -15 -57 0
6 15 66 0
-6 -15 -66 0
7 15 75 0
-7 -15 -75 0
1 16 22 0
-1 -16 -22 0
2 16 31 0
-2 -16 -31 0
3 16 40 0
-3 -16 -40 0
4 16 49 0
-4 -16 -49 0
5 16 58 0
-5 -16 -58 0
6 16 67 0
-6 -16 -67 0
7 16 76 0
-7 -16 -76 0
1 17 23 0
-1 -17 -23 0
2 17 32 0
-2 -17 -32 0
3 17 41 0
-3 -17 -41 0
4 17 50 0
-4 -17 -50 0
5 17 59 0
-5 -17 -59 0
6 17 68 0
-6 -17 -68 0
1 18 24 0
-1 -18 -24 0
2 18 33 0
-2 -18 -33 0
3 18 42 0
-3 -18 -42 0
4 18 51 0
-4 -18 -51 0
5 18 60 0
-5 -18 -60 0
6 18 69 0
-6 -18 -69 0
1 19 25 0
-1 -19 -25 0
2 19 34 0
-2 -19 -34 0
3 19 43 0
-3 -19 -43 0
4 19 52 0
-4 -19 -52 0
5 19 61 0
-5 -19 -61 0
6 19 70 0
-6 -19 -70 0
1 20 26 0
-1 -20 -26 0
2 20 35 0
-2 -20 -35 0
3 20 44 0
-3 -20 -44 0
4 20 53 0
-4 -20 -53 0
5 20 62 0
-5 -20 -62 0
6 20 71 0
-6 -20 -71 0
1 21 27 0
-1 -21 -27 0
2 21 36 0
-2 -21 -36 0
3 21 45 0
-3 -21 -45 0
4 21 54 0
-4 -21 -54 0
5 21 63 0
-5 -21 -63 0
6 21 72 0
-6 -21 -72 0
1 22 28 0
-1 -22 -28 0
2 22 37 0
-2 -22 -37 0
3 22 46 0
-3 -22 -46 0
4 22 55 0
-4 -22 -55 0
5 22 64 0
-5 -22 -64 0
6 22 73 0
-6 -22 -73 0
1 23 29 0
-1 -23 -29 0
2 23 38 0
-2 -23 -38 0
3 23 47 0
-3 -23 -47 0
4 23 56 0
-4 -23 -56 0
5 23 65 0
-5 -23 -65 0
6 23 74 0
-6 -23 -74 0
1 24 30 0
-1 -24 -30 0
2 24 39 0
-2 -24 -39 0
3 24 48 0
-3 -24 -48 0
4 24 57 0
-4 -24 -57 0
5 24 66 0
-5 -24 -66 0
6 24 75 0
-6 -24 -75 0
1 25 31 0
-1 -25 -31 0
2 25 40 0
-2 -25 -40 0
3 25 49 0
-3 -25 -49 0
4 25 58 0
-4 -25 -58 0
5 25 67 0
-5 -25 -67 0
6 25 76 0
-6 -25 -76 0
1 26 32 0
-1 -26 -32 0
2 26 41 0
-2 -26 -41 0
3 26 50 0
-3 -26 -50 0
4 26 59 0
-4 -26 -59 0
5 26 68 0
-5 -26 -68 0
1 27 33 0
-1 -27 -33 0
2 27 42 0
-2 -27 -42 0
3 27 51 0
-3 -27 -51 0
4 27 60 0
-4 -27 -60 0
5 27 69 0
-5 -27 -69 0
1 28 34 0
-1 -28 -34 0
2 28 43 0
-2 -28 -43 0
3 28 52 0
-3 -28 -52 0
4 28 61 0
-4 -28 -61 0
5 28 70 0
-5 -28 -70 0
1 29 35 0
-1 -29 -35 0
2 29 44 0
-2 -29 -44 0
3 29 53 0
-3 -29 -53 0
4 29 62 0
-4 -29 -62 0
5 29 71 0
-5 -29 -71 0
1 30 36 0
-1 -30 -36 0
2 30 45 0
-2 -30 -45 0
3 30 54 0
-3 -30 -54 0
4 30 63 0
-4 -30 -63 0
5 30 72 0
-5 -30 -72 0
1 31 37 0
-1 -31 -37 0
2 31 46 0
-2 -31 -46 0
3 31 55 0
-3 -31 -55 0
4 31 64 0
-4 -31 -64 0
5 31 73 0
-5 -31 -73 0
1 32 38 0
-1 -32 -38 0
2 32 47 0
-2 -32 -47 0
3 32 56 0
-3 -32 -56 0
4 32 65 0
-4 -32 -65 0
5 32 74 0
-5 -32 -74 0
1 33 39 0
-1 -33 -39 0
2 33 48 0
-2 -33 -48 0
3 33 57 0
-3 -33 -57 0
4 33 66 0
-4 -33 -66 0
5 33 75 0
-5 -33 -75 0
1 34 40 0
-1 -34 -40 0
2 34 49 0
-2 -34 -49 0
3 34 58 0
-3 -34 -58 0
4 34 67 0
-4 -34 -67 0
5 34 76 0
-5 -34 -76 0
1 35 41 0
-1 -35 -41 0
2 35 50 0
-2 -35 -50 0
3 35 59 0
-3 -35 -59 0
4 35 68 0
-4 -35 -68 0
1 36 42 0
-1 -36 -42 0
2 36 51 0
-2 -36 -51 0
3 36 60 0
-3 -36 -60 0
4 36 69 0
-4 -36 -69 0
1 37 43 0
-1 -37 -43 0
2 37 52 0
-2 -37 -52 0
3 37 61 0
-3 -37 -61 0
4 37 70 0
-4 -37 -70 0
1 38 44 0
-1 -38 -44 0
2 38 53 0
-2 -38 -53 0
3 38 62 0
-3 -38 -62 0
4 38 71 0
-4 -38 -71 0
1 39 45 0
-1 -39 -45 0
2 39 54 0
-2 -39 -54 0
3 39 63 0
-3 -39 -63 0
4 39 72 0
-4 -39 -72 0
1 40 46 0
-1 -40 -46 0
2 40 55 0
-2 -40 -55 0
3 40 64 0
-3 -40 -64 0
4 40 73 0
-4 -40 -73 0
1 41 47 0
-1 -41 -47 0
2 41 56 0
-2 -41 -56 0
3 41 65 0
-3 -41 -65 0
4 41 74 0
-4 -41 -74 0
1 42 48 0
-1 -42 -48 0
2 42 57 0
-2 -42 -57 0
3 42 66 0
-3 -42 -66 0
4 42 75 0
-4 -42 -75 0
1 43 49 0
-1 -43 -49 0
2 43 58 0
-2 -43 -58 0
3 43 67 0
-3 -43 -67 0
4 43 76 0
-4 -43 -76 0
1 44 50 0
-1 -44 -50 0
2 44 59 0
-2 -44 -59 0
3 44 68 0
-3 -44 -68 0
1 45 51 0
-1 -45 -51 0
2 45 60 0
-2 -45 -60 0
3 45 69 0
-3 -45 -69 0
1 46 52 0
-1 -46 -52 0
2 46 61 0
-2 -46 -61 0
3 46 70 0
-3 -46 -70 0
1 47 53 0
-1 -47 -53 0
2 47 62 0
-2 -47 -62 0
3 47 71 0
-3 -47 -71 0
1 48 54 0
-1 -48 -54 0
2 48 63 0
-2 -48 -63 0
3 48 72 0
-3 -48 -72 0
1 49 55 0
-1 -49 -55 0
2 49 64 0
-2 -49 -64 0
3 49 73 0
-3 -49 -73 0
1 50 56 0
-1 -50 -56 0
2 50 65 0
-2 -50 -65 0
3 50 74 0
-3 -50 -74 0
1 51 57 0
-1 -51 -57 0
2 51 66 0
-2 -51 -66 0
3 51 75 0
-3 -51 -75 0
1 52 58 0
-1 -52 -58 0
2 52 67 0
-2 -52 -67 0
3 52 76 0
-3 -52 -76 0
1 53 59 0
-1 -53 -59 0
2 53 68 0
-2 -53 -68 0
1 54 60 0
-1 -54 -60 0
2 54 69 0
-2 -54 -69 0
1 55 61 0
-1 -55 -61 0
2 55 70 0
-2 -55 -70 0
1 56 62 0
-1 -56 -62 0
2 56 71 0
-2 -56 -71 0
1 57 63 0
-1 -57 -63 0
2 57 72 0
-2 -57 -72 0
1 58 64 0
-1 -58 -64 0
2 58 73 0
-2 -58 -73 0
1 59 65 0
-1 -59 -65 0
2 59 74 0
-2 -59 -74 0
1 60 66 0
-1 -60 -66 0
2 60 75 0
-2 -60 -75 0
1 61 67 0
-1 -61 -67 0
2 61 76 0
-2 -61 -76 0
1 62 68 0
-1 -62 -68 0
1 63 69 0
-1 -63 -69 0
1 64 70 0
-1 -64 -70 0
1 65 71 0
-1 -65 -71 0
1 66 72 0
-1 -66 -72 0
1 67 73 0
-1 -67 -73 0
1 68 74 0
-1 -68 -74 0
1 69 75 0
-1 -69 -75 0
1 70 76 0
-1 -70 -76 0
