certificates/rado_a9_c3_N76.drat
1 -74 -76 0
-74 -76 0
d 1 -74 -76 0
-8 -76 0
7 -76 0
-76 0
8 0
-7 0
1 0
67 0
16 0
-70 0
-14 0
-2 0
-73 0
-61 0
-22 0
-6 0
-10 0
0
